35
120
91	1
89	2
88	3
86	1
82	1
80	1
77	1
72	1
71	1
70	1
69	2
66	2
65	1
62	1
60	1
59	1
57	1
56	2
52	1
48	1
47	1
44	1
41	2
39	1
35	1
34	2
33	1
30	1
27	1
26	4
22	2
17	3
16	2
14	1
13	1
